(set-info :smt-lib-version 2.6)
(set-logic QF_LIA)
(set-info :source |
Generated by: Nicolas Amat, Bernard Berthomieu, Silvano Dal Zilio, Didier Le Botlan
Generated on: 2022-03-07
Generator: SMPT
Application: Reachability query on the instance Diffusion2D-PT-D10N010 from the Model Checking Contest 2021 using the SMPT model-checker
Target solver: z3
Publications: https://doi.org/10.1007/978-3-030-76983-3_9, http://mcc.lip6.fr/2021/results.php
|)
(set-info :license "https://creativecommons.org/licenses/by/4.0/")
(set-info :category "industrial")
(set-info :status sat)

(declare-const cAMP__10_10_ Int)
(assert (>= cAMP__10_10_ 0))
(declare-const cAMP__10_9_ Int)
(assert (>= cAMP__10_9_ 0))
(declare-const cAMP__9_10_ Int)
(assert (>= cAMP__9_10_ 0))
(declare-const cAMP__9_9_ Int)
(assert (>= cAMP__9_9_ 0))
(declare-const cAMP__10_1_ Int)
(assert (>= cAMP__10_1_ 0))
(declare-const cAMP__10_2_ Int)
(assert (>= cAMP__10_2_ 0))
(declare-const cAMP__9_1_ Int)
(assert (>= cAMP__9_1_ 0))
(declare-const cAMP__9_2_ Int)
(assert (>= cAMP__9_2_ 0))
(declare-const cAMP__10_3_ Int)
(assert (>= cAMP__10_3_ 0))
(declare-const cAMP__9_3_ Int)
(assert (>= cAMP__9_3_ 0))
(declare-const cAMP__10_4_ Int)
(assert (>= cAMP__10_4_ 0))
(declare-const cAMP__9_4_ Int)
(assert (>= cAMP__9_4_ 0))
(declare-const cAMP__10_5_ Int)
(assert (>= cAMP__10_5_ 0))
(declare-const cAMP__9_5_ Int)
(assert (>= cAMP__9_5_ 0))
(declare-const cAMP__10_6_ Int)
(assert (>= cAMP__10_6_ 0))
(declare-const cAMP__9_6_ Int)
(assert (>= cAMP__9_6_ 0))
(declare-const cAMP__10_7_ Int)
(assert (>= cAMP__10_7_ 0))
(declare-const cAMP__9_7_ Int)
(assert (>= cAMP__9_7_ 0))
(declare-const cAMP__10_8_ Int)
(assert (>= cAMP__10_8_ 0))
(declare-const cAMP__9_8_ Int)
(assert (>= cAMP__9_8_ 0))
(declare-const cAMP__1_10_ Int)
(assert (>= cAMP__1_10_ 0))
(declare-const cAMP__1_9_ Int)
(assert (>= cAMP__1_9_ 0))
(declare-const cAMP__2_10_ Int)
(assert (>= cAMP__2_10_ 0))
(declare-const cAMP__2_9_ Int)
(assert (>= cAMP__2_9_ 0))
(declare-const cAMP__1_1_ Int)
(assert (>= cAMP__1_1_ 0))
(declare-const cAMP__1_2_ Int)
(assert (>= cAMP__1_2_ 0))
(declare-const cAMP__2_1_ Int)
(assert (>= cAMP__2_1_ 0))
(declare-const cAMP__2_2_ Int)
(assert (>= cAMP__2_2_ 0))
(declare-const cAMP__1_3_ Int)
(assert (>= cAMP__1_3_ 0))
(declare-const cAMP__2_3_ Int)
(assert (>= cAMP__2_3_ 0))
(declare-const cAMP__1_4_ Int)
(assert (>= cAMP__1_4_ 0))
(declare-const cAMP__2_4_ Int)
(assert (>= cAMP__2_4_ 0))
(declare-const cAMP__1_5_ Int)
(assert (>= cAMP__1_5_ 0))
(declare-const cAMP__2_5_ Int)
(assert (>= cAMP__2_5_ 0))
(declare-const cAMP__1_6_ Int)
(assert (>= cAMP__1_6_ 0))
(declare-const cAMP__2_6_ Int)
(assert (>= cAMP__2_6_ 0))
(declare-const cAMP__1_7_ Int)
(assert (>= cAMP__1_7_ 0))
(declare-const cAMP__2_7_ Int)
(assert (>= cAMP__2_7_ 0))
(declare-const cAMP__1_8_ Int)
(assert (>= cAMP__1_8_ 0))
(declare-const cAMP__2_8_ Int)
(assert (>= cAMP__2_8_ 0))
(declare-const cAMP__3_10_ Int)
(assert (>= cAMP__3_10_ 0))
(declare-const cAMP__3_9_ Int)
(assert (>= cAMP__3_9_ 0))
(declare-const cAMP__3_1_ Int)
(assert (>= cAMP__3_1_ 0))
(declare-const cAMP__3_2_ Int)
(assert (>= cAMP__3_2_ 0))
(declare-const cAMP__3_3_ Int)
(assert (>= cAMP__3_3_ 0))
(declare-const cAMP__3_4_ Int)
(assert (>= cAMP__3_4_ 0))
(declare-const cAMP__3_5_ Int)
(assert (>= cAMP__3_5_ 0))
(declare-const cAMP__3_6_ Int)
(assert (>= cAMP__3_6_ 0))
(declare-const cAMP__3_7_ Int)
(assert (>= cAMP__3_7_ 0))
(declare-const cAMP__3_8_ Int)
(assert (>= cAMP__3_8_ 0))
(declare-const cAMP__4_10_ Int)
(assert (>= cAMP__4_10_ 0))
(declare-const cAMP__4_9_ Int)
(assert (>= cAMP__4_9_ 0))
(declare-const cAMP__4_1_ Int)
(assert (>= cAMP__4_1_ 0))
(declare-const cAMP__4_2_ Int)
(assert (>= cAMP__4_2_ 0))
(declare-const cAMP__4_3_ Int)
(assert (>= cAMP__4_3_ 0))
(declare-const cAMP__4_4_ Int)
(assert (>= cAMP__4_4_ 0))
(declare-const cAMP__4_5_ Int)
(assert (>= cAMP__4_5_ 0))
(declare-const cAMP__4_6_ Int)
(assert (>= cAMP__4_6_ 0))
(declare-const cAMP__4_7_ Int)
(assert (>= cAMP__4_7_ 0))
(declare-const cAMP__4_8_ Int)
(assert (>= cAMP__4_8_ 0))
(declare-const cAMP__5_10_ Int)
(assert (>= cAMP__5_10_ 0))
(declare-const cAMP__5_9_ Int)
(assert (>= cAMP__5_9_ 0))
(declare-const cAMP__5_1_ Int)
(assert (>= cAMP__5_1_ 0))
(declare-const cAMP__5_2_ Int)
(assert (>= cAMP__5_2_ 0))
(declare-const cAMP__5_3_ Int)
(assert (>= cAMP__5_3_ 0))
(declare-const cAMP__5_4_ Int)
(assert (>= cAMP__5_4_ 0))
(declare-const cAMP__5_5_ Int)
(assert (>= cAMP__5_5_ 0))
(declare-const cAMP__5_6_ Int)
(assert (>= cAMP__5_6_ 0))
(declare-const cAMP__5_7_ Int)
(assert (>= cAMP__5_7_ 0))
(declare-const cAMP__5_8_ Int)
(assert (>= cAMP__5_8_ 0))
(declare-const cAMP__6_10_ Int)
(assert (>= cAMP__6_10_ 0))
(declare-const cAMP__6_9_ Int)
(assert (>= cAMP__6_9_ 0))
(declare-const cAMP__6_1_ Int)
(assert (>= cAMP__6_1_ 0))
(declare-const cAMP__6_2_ Int)
(assert (>= cAMP__6_2_ 0))
(declare-const cAMP__6_3_ Int)
(assert (>= cAMP__6_3_ 0))
(declare-const cAMP__6_4_ Int)
(assert (>= cAMP__6_4_ 0))
(declare-const cAMP__6_5_ Int)
(assert (>= cAMP__6_5_ 0))
(declare-const cAMP__6_6_ Int)
(assert (>= cAMP__6_6_ 0))
(declare-const cAMP__6_7_ Int)
(assert (>= cAMP__6_7_ 0))
(declare-const cAMP__6_8_ Int)
(assert (>= cAMP__6_8_ 0))
(declare-const cAMP__7_10_ Int)
(assert (>= cAMP__7_10_ 0))
(declare-const cAMP__7_9_ Int)
(assert (>= cAMP__7_9_ 0))
(declare-const cAMP__7_1_ Int)
(assert (>= cAMP__7_1_ 0))
(declare-const cAMP__7_2_ Int)
(assert (>= cAMP__7_2_ 0))
(declare-const cAMP__7_3_ Int)
(assert (>= cAMP__7_3_ 0))
(declare-const cAMP__7_4_ Int)
(assert (>= cAMP__7_4_ 0))
(declare-const cAMP__7_5_ Int)
(assert (>= cAMP__7_5_ 0))
(declare-const cAMP__7_6_ Int)
(assert (>= cAMP__7_6_ 0))
(declare-const cAMP__7_7_ Int)
(assert (>= cAMP__7_7_ 0))
(declare-const cAMP__7_8_ Int)
(assert (>= cAMP__7_8_ 0))
(declare-const cAMP__8_10_ Int)
(assert (>= cAMP__8_10_ 0))
(declare-const cAMP__8_9_ Int)
(assert (>= cAMP__8_9_ 0))
(declare-const cAMP__8_1_ Int)
(assert (>= cAMP__8_1_ 0))
(declare-const cAMP__8_2_ Int)
(assert (>= cAMP__8_2_ 0))
(declare-const cAMP__8_3_ Int)
(assert (>= cAMP__8_3_ 0))
(declare-const cAMP__8_4_ Int)
(assert (>= cAMP__8_4_ 0))
(declare-const cAMP__8_5_ Int)
(assert (>= cAMP__8_5_ 0))
(declare-const cAMP__8_6_ Int)
(assert (>= cAMP__8_6_ 0))
(declare-const cAMP__8_7_ Int)
(assert (>= cAMP__8_7_ 0))
(declare-const cAMP__8_8_ Int)
(assert (>= cAMP__8_8_ 0))

(declare-const a1 Int)
(assert (>= a1 0))
(declare-const a2 Int)
(assert (>= a2 0))
(declare-const a3 Int)
(assert (>= a3 0))
(declare-const a4 Int)
(assert (>= a4 0))
(declare-const a5 Int)
(assert (>= a5 0))
(declare-const a6 Int)
(assert (>= a6 0))
(declare-const a7 Int)
(assert (>= a7 0))
(declare-const a8 Int)
(assert (>= a8 0))
(declare-const a9 Int)
(assert (>= a9 0))
(declare-const a10 Int)
(assert (>= a10 0))
(declare-const a11 Int)
(assert (>= a11 0))
(declare-const a12 Int)
(assert (>= a12 0))
(declare-const a13 Int)
(assert (>= a13 0))
(declare-const a14 Int)
(assert (>= a14 0))
(declare-const a15 Int)
(assert (>= a15 0))
(declare-const a16 Int)
(assert (>= a16 0))
(declare-const a17 Int)
(assert (>= a17 0))
(declare-const a18 Int)
(assert (>= a18 0))
(declare-const a19 Int)
(assert (>= a19 0))
(declare-const a20 Int)
(assert (>= a20 0))
(declare-const a21 Int)
(assert (>= a21 0))
(declare-const a22 Int)
(assert (>= a22 0))
(declare-const a23 Int)
(assert (>= a23 0))
(declare-const a24 Int)
(assert (>= a24 0))
(declare-const a25 Int)
(assert (>= a25 0))
(declare-const a26 Int)
(assert (>= a26 0))
(declare-const a27 Int)
(assert (>= a27 0))
(declare-const a28 Int)
(assert (>= a28 0))
(declare-const a29 Int)
(assert (>= a29 0))
(declare-const a30 Int)
(assert (>= a30 0))
(declare-const a31 Int)
(assert (>= a31 0))
(declare-const a32 Int)
(assert (>= a32 0))
(declare-const a33 Int)
(assert (>= a33 0))
(declare-const a34 Int)
(assert (>= a34 0))
(declare-const a35 Int)
(assert (>= a35 0))
(declare-const a36 Int)
(assert (>= a36 0))
(declare-const a37 Int)
(assert (>= a37 0))
(declare-const a38 Int)
(assert (>= a38 0))
(declare-const a39 Int)
(assert (>= a39 0))
(declare-const a40 Int)
(assert (>= a40 0))
(declare-const a41 Int)
(assert (>= a41 0))
(declare-const a42 Int)
(assert (>= a42 0))
(declare-const a43 Int)
(assert (>= a43 0))
(declare-const a44 Int)
(assert (>= a44 0))
(declare-const a45 Int)
(assert (>= a45 0))
(declare-const a46 Int)
(assert (>= a46 0))
(declare-const a47 Int)
(assert (>= a47 0))
(declare-const a48 Int)
(assert (>= a48 0))
(declare-const a49 Int)
(assert (>= a49 0))
(declare-const a50 Int)
(assert (>= a50 0))
(declare-const a51 Int)
(assert (>= a51 0))
(declare-const a52 Int)
(assert (>= a52 0))
(declare-const a53 Int)
(assert (>= a53 0))
(declare-const a54 Int)
(assert (>= a54 0))
(declare-const a55 Int)
(assert (>= a55 0))
(declare-const a56 Int)
(assert (>= a56 0))
(declare-const a57 Int)
(assert (>= a57 0))
(declare-const a58 Int)
(assert (>= a58 0))
(declare-const a59 Int)
(assert (>= a59 0))
(declare-const a60 Int)
(assert (>= a60 0))
(declare-const a61 Int)
(assert (>= a61 0))
(declare-const a62 Int)
(assert (>= a62 0))
(declare-const a63 Int)
(assert (>= a63 0))
(declare-const a64 Int)
(assert (>= a64 0))
(declare-const a65 Int)
(assert (>= a65 0))
(declare-const a66 Int)
(assert (>= a66 0))
(declare-const a67 Int)
(assert (>= a67 0))
(declare-const a68 Int)
(assert (>= a68 0))
(declare-const a69 Int)
(assert (>= a69 0))
(declare-const a70 Int)
(assert (>= a70 0))
(declare-const a71 Int)
(assert (>= a71 0))
(declare-const a72 Int)
(assert (>= a72 0))
(declare-const a73 Int)
(assert (>= a73 0))
(declare-const a74 Int)
(assert (>= a74 0))
(declare-const a75 Int)
(assert (>= a75 0))
(declare-const a76 Int)
(assert (>= a76 0))
(declare-const a77 Int)
(assert (>= a77 0))
(declare-const a78 Int)
(assert (>= a78 0))
(declare-const a79 Int)
(assert (>= a79 0))
(declare-const a80 Int)
(assert (>= a80 0))
(declare-const a81 Int)
(assert (>= a81 0))
(declare-const a82 Int)
(assert (>= a82 0))
(declare-const a83 Int)
(assert (>= a83 0))
(declare-const a84 Int)
(assert (>= a84 0))
(declare-const a85 Int)
(assert (>= a85 0))
(declare-const a86 Int)
(assert (>= a86 0))
(declare-const a87 Int)
(assert (>= a87 0))
(declare-const a88 Int)
(assert (>= a88 0))
(declare-const a89 Int)
(assert (>= a89 0))
(declare-const a90 Int)
(assert (>= a90 0))
(declare-const a91 Int)
(assert (>= a91 0))
(declare-const a92 Int)
(assert (>= a92 0))
(declare-const a93 Int)
(assert (>= a93 0))
(declare-const a94 Int)
(assert (>= a94 0))
(declare-const a95 Int)
(assert (>= a95 0))
(declare-const a96 Int)
(assert (>= a96 0))
(declare-const a97 Int)
(assert (>= a97 0))
(declare-const a98 Int)
(assert (>= a98 0))
(declare-const a99 Int)
(assert (>= a99 0))

(assert (= a1 (+ cAMP__10_10_ cAMP__10_9_)))
(assert (= a2 (+ cAMP__10_1_ cAMP__10_2_)))
(assert (= a3 (+ cAMP__10_3_ a2)))
(assert (= a4 (+ cAMP__10_4_ cAMP__10_5_)))
(assert (= a5 (+ cAMP__10_6_ a4)))
(assert (= a6 (+ cAMP__10_7_ cAMP__10_8_)))
(assert (= a7 (+ cAMP__1_10_ cAMP__1_9_)))
(assert (= a8 (+ cAMP__1_1_ cAMP__1_2_)))
(assert (= a9 (+ cAMP__1_3_ a8)))
(assert (= a10 (+ cAMP__1_4_ cAMP__1_5_)))
(assert (= a11 (+ cAMP__1_6_ a10)))
(assert (= a12 (+ cAMP__1_7_ cAMP__1_8_)))
(assert (= a13 (+ cAMP__2_10_ a7)))
(assert (= a14 (+ cAMP__2_1_ a9)))
(assert (= a15 (+ cAMP__2_2_ a14)))
(assert (= a16 (+ cAMP__2_3_ a15)))
(assert (= a17 (+ cAMP__2_4_ a11)))
(assert (= a18 (+ cAMP__2_5_ a17)))
(assert (= a19 (+ cAMP__2_6_ a18)))
(assert (= a20 (+ cAMP__2_7_ a12)))
(assert (= a21 (+ cAMP__2_8_ a20)))
(assert (= a22 (+ cAMP__2_9_ a21)))
(assert (= a23 (+ cAMP__3_10_ cAMP__3_9_)))
(assert (= a24 (+ cAMP__3_1_ cAMP__3_2_)))
(assert (= a25 (+ cAMP__3_3_ a24)))
(assert (= a26 (+ cAMP__3_4_ cAMP__3_5_)))
(assert (= a27 (+ cAMP__3_6_ a26)))
(assert (= a28 (+ cAMP__3_7_ cAMP__3_8_)))
(assert (= a29 (+ cAMP__4_10_ a23)))
(assert (= a30 (+ cAMP__4_1_ a25)))
(assert (= a31 (+ cAMP__4_2_ a30)))
(assert (= a32 (+ cAMP__4_3_ a31)))
(assert (= a33 (+ cAMP__4_4_ a27)))
(assert (= a34 (+ cAMP__4_5_ a33)))
(assert (= a35 (+ cAMP__4_6_ a34)))
(assert (= a36 (+ cAMP__4_7_ a28)))
(assert (= a37 (+ cAMP__4_8_ a36)))
(assert (= a38 (+ cAMP__4_9_ a37)))
(assert (= a39 (+ cAMP__5_10_ cAMP__5_9_)))
(assert (= a40 (+ cAMP__5_1_ cAMP__5_2_)))
(assert (= a41 (+ cAMP__5_3_ a40)))
(assert (= a42 (+ cAMP__5_4_ cAMP__5_5_)))
(assert (= a43 (+ cAMP__5_6_ a42)))
(assert (= a44 (+ cAMP__5_7_ cAMP__5_8_)))
(assert (= a45 (+ cAMP__6_10_ a39)))
(assert (= a46 (+ cAMP__6_1_ a41)))
(assert (= a47 (+ cAMP__6_2_ a46)))
(assert (= a48 (+ cAMP__6_3_ a47)))
(assert (= a49 (+ cAMP__6_4_ a43)))
(assert (= a50 (+ cAMP__6_5_ a49)))
(assert (= a51 (+ cAMP__6_6_ a50)))
(assert (= a52 (+ cAMP__6_7_ a44)))
(assert (= a53 (+ cAMP__6_8_ a52)))
(assert (= a54 (+ cAMP__6_9_ a53)))
(assert (= a55 (+ cAMP__7_10_ cAMP__7_9_)))
(assert (= a56 (+ cAMP__7_1_ cAMP__7_2_)))
(assert (= a57 (+ cAMP__7_3_ a56)))
(assert (= a58 (+ cAMP__7_4_ cAMP__7_5_)))
(assert (= a59 (+ cAMP__7_6_ a58)))
(assert (= a60 (+ cAMP__7_7_ cAMP__7_8_)))
(assert (= a61 (+ cAMP__8_10_ a55)))
(assert (= a62 (+ cAMP__8_1_ a57)))
(assert (= a63 (+ cAMP__8_2_ a62)))
(assert (= a64 (+ cAMP__8_3_ a63)))
(assert (= a65 (+ cAMP__8_4_ a59)))
(assert (= a66 (+ cAMP__8_5_ a65)))
(assert (= a67 (+ cAMP__8_6_ a66)))
(assert (= a68 (+ cAMP__8_7_ a60)))
(assert (= a69 (+ cAMP__8_8_ a68)))
(assert (= a70 (+ cAMP__8_9_ a69)))
(assert (= a71 (+ cAMP__9_10_ a1)))
(assert (= a72 (+ cAMP__9_1_ a3)))
(assert (= a73 (+ cAMP__9_2_ a72)))
(assert (= a74 (+ cAMP__9_3_ a73)))
(assert (= a75 (+ cAMP__9_4_ a5)))
(assert (= a76 (+ cAMP__9_5_ a75)))
(assert (= a77 (+ cAMP__9_6_ a76)))
(assert (= a78 (+ cAMP__9_7_ a6)))
(assert (= a79 (+ cAMP__9_8_ a78)))
(assert (= a80 (+ cAMP__9_9_ a79)))
(assert (= a81 (+ a74 a77)))
(assert (= a82 (+ a80 a71)))
(assert (= a83 (+ a16 a19)))
(assert (= a84 (+ a22 a13)))
(assert (= a85 (+ a32 a83)))
(assert (= a86 (+ a35 a85)))
(assert (= a87 (+ a38 a86)))
(assert (= a88 (+ a29 a84)))
(assert (= a89 (+ a48 a51)))
(assert (= a90 (+ a54 a45)))
(assert (= a91 (+ a64 a89)))
(assert (= a92 (+ a67 a91)))
(assert (= a93 (+ a70 a92)))
(assert (= a94 (+ a61 a90)))
(assert (= a95 (+ a81 a82)))
(assert (= a96 (+ a87 a88)))
(assert (= a97 (+ a93 a94)))
(assert (= a98 (+ a96 a97)))
(assert (= a99 (+ a95 a98)))
(assert (= a99 10))

(assert (and (and (and (>= cAMP__9_1_ 1)(not (>= cAMP__4_8_ 1)))(not (>= cAMP__6_6_ 1)))(>= cAMP__2_3_ 1)))

(check-sat)
(exit)
